C14
1.0
   8.6355199999999996    2.1367400000000001    0.0000000000000000
   0.0000099999999996    4.2734800000000002    0.0000000000000000
   0.0000000000000000    0.0000000000000000    7.8030700000000000
C
14
direct
   0.0000000000000000    0.0000000000000000    0.2500000000000000 C
   0.1428571428571428    0.4285714285714285    0.2500000000000000 C
   0.2857142857142857    0.8571428571428570    0.2500000000000000 C
   0.4285714285714286    0.2857142857142856    0.2500000000000000 C
   0.5714285714285713    0.7142857142857142    0.2500000000000000 C
   0.7142857142857143    0.1428571428571429    0.2500000000000000 C
   0.8571428571428572    0.5714285714285712    0.2500000000000000 C
   0.9999977994190272    0.3333361002904864    0.2500000000000000 C
   0.1428549422761700    0.7619075288619149    0.2500000000000000 C
   0.2857120851333129    0.1904789574333434    0.2500000000000000 C
   0.4285692279904557    0.6190503860047721    0.2500000000000000 C
   0.5714263708475985    0.0476218145762006    0.2500000000000000 C
   0.7142835137047415    0.4761932431476293    0.2500000000000000 C
   0.8571406565618843    0.9047646717190576    0.2500000000000000 C
