C14
1.0
   8.6355299999999993    6.4102200000000007    0.0000000000000000
   0.0000099999999996    4.2734800000000002    0.0000000000000000
   0.0000000000000000    0.0000000000000000    7.8030700000000000
C
14
direct
   0.0000000000000000    0.0000000000000000    0.2500000000000000 C
   0.1428571428571429    0.2857142857142857    0.2500000000000000 C
   0.2857142857142858    0.5714285714285714    0.2500000000000000 C
   0.4285714285714285    0.8571428571428572    0.2500000000000000 C
   0.5714285714285714    0.1428571428571429    0.2500000000000000 C
   0.7142857142857143    0.4285714285714284    0.2500000000000000 C
   0.8571428571428571    0.7142857142857144    0.2500000000000000 C
   0.9999977994190272    0.3333383008714592    0.2500000000000000 C
   0.1428549422761700    0.6190525865857450    0.2500000000000000 C
   0.2857120851333129    0.9047668723000306    0.2500000000000000 C
   0.4285692279904557    0.1904811580143166    0.2500000000000000 C
   0.5714263708475985    0.4761954437286021    0.2500000000000000 C
   0.7142835137047414    0.7619097294428876    0.2500000000000000 C
   0.8571406565618843    0.0476240151571736    0.2500000000000000 C
