C14
1.0
   3.7009300000000005   -2.1367400000000001    0.0000000000000000
   9.8691700000000004    4.2734800000000002    0.0000000000000000
   0.0000000000000000    0.0000000000000000    7.8030700000000000
C
14
direct
   0.0000000000000000    0.0000000000000000    0.2500000000000000 C
   0.2857142857142858    0.1428571428571428    0.2500000000000000 C
   0.5714285714285715    0.2857142857142856    0.2500000000000000 C
   0.1428571428571429    0.5714285714285714    0.2500000000000000 C
   0.8571428571428572    0.4285714285714285    0.2500000000000000 C
   0.4285714285714285    0.7142857142857142    0.2500000000000000 C
   0.7142857142857144    0.8571428571428570    0.2500000000000000 C
   0.6190435137047414    0.1428567568523707    0.2500000000000000 C
   0.9047577994190272    0.2857138997095136    0.2500000000000000 C
   0.1904720851333129    0.4285710425666563    0.2500000000000000 C
   0.7619006565618844    0.7142853282809422    0.2500000000000000 C
   0.4761863708475986    0.5714281854237993    0.2500000000000000 C
   0.0476149422761700    0.8571424711380849    0.2500000000000000 C
   0.3333292279904557    0.9999996139952276    0.2500000000000000 C
