C14
1.0
   6.1682399999999999    6.4102200000000007    0.0000000000000000
  -9.8691700000000004   -4.2734800000000002    0.0000000000000000
   0.0000000000000000    0.0000000000000000    7.8030700000000000
C
14
direct
   0.1428571428571428    0.7142857142857142    0.2500000000000000 C
   0.5714285714285715    0.8571428571428572    0.2500000000000000 C
   0.2857142857142858    0.4285714285714286    0.2500000000000000 C
   0.7142857142857142    0.5714285714285713    0.2500000000000000 C
   0.0000000000000000    0.0000000000000000    0.2500000000000000 C
   0.4285714285714287    0.1428571428571429    0.2500000000000000 C
   0.8571428571428574    0.2857142857142858    0.2500000000000000 C
   0.5238136291524014    0.9523854437286020    0.2500000000000000 C
   0.9523850577238301    0.0952425865857449    0.2500000000000000 C
   0.6666707720095443    0.6666711580143164    0.2500000000000000 C
   0.0952422005809728    0.8095283008714591    0.2500000000000000 C
   0.3809564862952585    0.2380997294428878    0.2500000000000000 C
   0.8095279148666872    0.3809568723000308    0.2500000000000000 C
   0.2380993434381160    0.5238140151571737    0.2500000000000000 C
