C 
 1.0000000000000000
     3.7009400000000001    2.1367400000000001    0.0000000000000000
    -1.2336400000000003    2.1367400000000001    0.0000000000000000
     0.0000000000000000    0.0000000000000000    7.8030700000000000
 C  
   4
Cartesian
  0.0000000000000000  0.0000000000000000  1.9507675000000000
 -0.0000156697999998  1.4245004558000001  1.9507675000000000
  1.2336499999999999  2.1367399999999996  1.9507675000000000
  2.4672743302000004  1.4245004557999998  1.9507675000000000
