Mo  S 
 1.0000000000000000
     3.1922400000000000    0.0000000000000000    0.0000000000000000
    -1.5961200000000000    2.7645599999999999    0.0000000000000000
     0.0000000000000000    0.0000000000000000   13.3782899999999998
  Mo   S
   1   2
Cartesian
  1.5961359612000001  0.9215107848000000  3.3445724999999999
 -0.0000159611999998  1.8430492152000000  1.7803828332000000
 -0.0000159611999998  1.8430492152000000  4.9087621667999999
