C6
1.0
        4.2734694481         0.0000000000         0.0000000000
        2.1367326090         3.7009442363         0.0000000000
        0.0000000000         0.0000000000         7.8030700684
    C
    6
Cartesian
     0.000000000         0.000000000         1.950767517
     2.136734083         1.233648116         1.950767517
     4.273468165         2.467296231         1.950767517
     3.561203882         1.233644696         1.950767517
     5.697937901         2.467292922         1.950767517
     3.561202472         3.700940927         1.950767517
