Mo  S Te
  1.0000000000000000
  3.3630000000000000  0.0000000000000000  0.0000000000000000
  -1.6815000000000000  2.9124500000000002  0.0000000000000000
  0.0000000000000000  0.0000000000000000  18.2324899999999985
  Mo  S  Te
  1  1  1
C
  0.0000000000000000  0.0000000000000000  -9.2872657562000001
  1.6815168149999997  0.9708069585000001  -10.7613625726999995
  1.6815168149999997  0.9708069585000001  -7.3879872728999993
