Mg3 S3
1.0
   6.0519300000000005   -3.4940899999999999    0.0000000000000000
   6.0519300000000005    3.4940899999999999    0.0000000000000000
   0.0000000000000000    0.0000000000000000   16.4322899999999983
Mg S
3 3
direct
   0.0000033333333333    0.3333333333333333    0.1940600000000000 Mg
   0.3333366666666666    0.6666666666666665    0.1940600000000000 Mg
   0.6666700000000000    0.9999999999999999    0.1940600000000000 Mg
   0.6666633333333333    0.3333333333333334    0.1484500000000000 S
   0.9999966666666668    0.6666666666666666    0.1484500000000000 S
   0.3333300000000001    0.0000000000000000    0.1484500000000000 S
